1682.19 0
0 120 119 111 86 89 92 93 73 76 80 56 60 63 66 58 55 53 0
0 96 94 41 44 47 48 45 68 77 75 72 74 71 103 0
0 88 82 81 17 19 26 67 69 70 78 79 40 43 39 115 102 0
0 101 100 110 38 42 46 49 50 51 65 61 62 64 57 109 114 90 0
0 95 91 18 118 108 21 20 23 28 30 33 27 24 22 8 13 9 7 83 117 112 85 0
0 87 84 113 5 4 3 1 2 6 37 59 54 52 98 116 0
0 105 106 107 104 99 97 10 11 15 14 12 16 25 31 34 36 35 32 29 0